objective value:                                   -4
t_n_12                                              1 	(obj:-1)
t_n_915                                             1 	(obj:-1)
t_n_1328                                            1 	(obj:-1)
t_n_1998                                            1 	(obj:-1)
